c turning on binary mode checking
c parsing input formula with 202048 variables and 780985 clauses
c finished parsing, read 2158090 bytes from proof file
c detected empty clause; start verification via backward checking
c 5711 of 780985 clauses in core                            
c 1877 of 83569 lemmas in core using 38817 resolution steps
c 0 RAT lemmas in core; 210 redundant literals in core lemmas
s VERIFIED
c verification time: 1.012 seconds
